0 60 70
1 53 73
2 73 74
3 42 74
4 72 74
5 72 75
6 71 74
7 73 73
8 67 72
9 57 71
10 57 69
11 66 66
12 62 63
13 51 63
14 48 62
15 50 60
16 59 60
17 54 59
18 44 58
19 53 57
20 55 56
21 53 55
22 51 55
23 48 53
24 47 50
25 40 52
26 40 51
27 52 52
28 52 52
29 46 51
30 43 48
31 39 48
32 36 47
33 48 48
34 43 47
35 44 47
36 46 46
37 19 43
38 37 42
39 39 40
40 39 39
41 36 36
42 27 40
43 40 40
44 21 38
45 29 35
46 32 34
47 33 34
48 23 33
49 22 30
50 29 29
51 27 30
52 29 29
53 26 28
54 27 29
55 26 27
56 19 25
57 17 23
58 28 28
59 26 26
60 26 26
61 11 25
62 22 23
63 16 22
64 16 20
65 12 18
66 13 16
67 13 13
68 6 12
69 9 10
70 7 8
71 6 7
72 4 7
73 7 8
74 6 7
75 5 5
76 1 3
77 3 3
78 1 3
79 2 2
80 1 1

